139946.08,62.33,77.29
134499.62,64.85,80.42
129734.61,67.23,83.37
141412.32,61.68,76.49
143044.99,60.98,75.62
154690.46,56.39,69.92
133623.17,65.28,80.95
141557.57,61.62,76.41
140614.26,62.03,76.92
141763.46,61.53,76.3
147328.77,59.2,73.42
131772.49,66.19,82.09
143720.19,60.69,75.26
138394.73,63.03,78.16
133451.86,65.36,81.05
148530.28,58.73,72.82
140815.63,61.94,76.81
128313.73,67.98,84.3
136586.25,63.86,79.19
139540.15,62.51,77.52
